c read Graph
c width = 78
c time = 401 ms
c width = 9
c time = 529 ms
c width = 8
c time = 625 ms
c width = 7
c time = 2219 ms
c width = 7
c time = 4354 ms
s td 84 8 91
b 1 1 2 14
b 2 2 3 14 15
b 3 11 12 25 26
b 4 3 14 15 27
b 5 11 25 26 39
b 6 53 66 67 80
b 7 65 77 78 90
b 8 53 67 80 81
b 9 65 77 89 90
b 10 3 4 15 16 27
b 11 4 5 15 16 17 27
b 12 5 7 15 16 17 18 19 27
b 13 7 15 16 17 18 19 27 28
b 14 7 16 17 18 19 27 28 29
b 15 7 17 18 19 27 28 29 30
b 16 7 18 19 27 28 29 30 31
b 17 7 19 27 28 29 30 31 40
b 18 7 19 28 29 30 31 40 41
b 19 7 19 29 30 31 40 41 42
b 20 7 19 30 31 40 41 42 43
b 21 7 19 31 40 41 42 43 53
b 22 7 19 31 41 42 43 53 54
b 23 7 19 31 42 43 53 54 55
b 24 7 19 31 43 53 54 55 67
b 25 7 19 31 43 53 55 67 81
b 26 7 19 31 43 55 67 68 81
b 27 7 19 31 43 55 56 68 81
b 28 7 19 31 43 44 56 68 81
b 29 7 19 31 32 44 56 68 81
b 30 7 19 20 32 44 56 68 81
b 31 7 8 20 32 44 56 68 81
b 32 8 20 32 44 56 68 69 81
b 33 8 20 32 44 56 57 69 81
b 34 8 20 32 44 45 57 69 81
b 35 8 20 32 33 45 57 69 81
b 36 8 20 21 33 45 57 69 81
b 37 8 9 21 33 45 57 69 81
b 38 9 21 33 45 57 69 81 82
b 39 9 21 33 45 57 69 70 82
b 40 9 21 33 45 57 58 70 82
b 41 9 21 33 45 46 58 70 82
b 42 9 21 33 34 46 58 70 82
b 43 9 21 34 46 58 70 82 83
b 44 9 21 34 46 58 70 71 83
b 45 9 21 34 46 58 59 71 83
b 46 9 21 34 46 47 59 71 83
b 47 9 21 34 35 47 59 71 83
b 48 9 21 23 35 47 59 71 83
b 49 9 23 35 47 59 71 83 84
b 50 9 23 35 47 59 71 72 84
b 51 9 23 35 47 59 60 72 84
b 52 9 23 35 47 48 60 72 84
b 53 9 23 35 36 48 60 72 84
b 54 9 23 36 48 60 72 84 85
b 55 9 23 36 48 60 72 73 85
b 56 9 23 36 48 60 61 73 85
b 57 9 23 36 48 61 73 85 86
b 58 9 23 36 48 61 73 74 86
b 59 9 23 36 48 61 62 74 86
b 60 9 23 36 48 50 62 74 86
b 61 9 23 36 50 62 74 86 88
b 62 9 23 36 50 62 74 75 88
b 63 9 23 36 50 62 75 76 88
b 64 9 23 36 50 62 64 76 88
b 65 9 23 36 50 52 64 76 88
b 66 52 64 76 88 89
b 67 5 6 7 19
b 68 74 86 87 88
b 69 52 64 65 76 89
b 70 64 65 76 77 89
b 71 50 62 63 64 76
b 72 36 48 49 50 62
b 73 9 23 36 38 50 52 64
b 74 9 23 24 36 38 50 52
b 75 9 11 23 24 38 52
b 76 11 24 38 39 52
b 77 11 24 25 38 39
b 78 9 10 11 23
b 79 24 36 37 38 50
b 80 38 50 51 52 64
b 81 9 21 22 23 35
b 82 78 90 91
b 83 66 79 80
b 84 12 13 26
1 2
2 4
3 84
3 5
4 10
5 77
6 83
6 8
7 82
7 9
8 25
9 70
10 11
11 12
12 67
12 13
13 14
14 15
15 16
16 17
17 18
18 19
19 20
20 21
21 22
22 23
23 24
24 25
25 26
26 27
27 28
28 29
29 30
30 31
31 32
32 33
33 34
34 35
35 36
36 37
37 38
38 39
39 40
40 41
41 42
42 43
43 44
44 45
45 46
46 47
47 48
48 81
48 49
49 50
50 51
51 52
52 53
53 54
54 55
55 56
56 57
57 58
58 59
59 60
60 72
60 61
61 68
61 62
62 63
63 64
64 71
64 65
65 73
65 66
66 69
69 70
73 80
73 74
74 79
74 75
75 78
75 76
76 77
